
279
500
   350      1
   348      3
   347      1
   346      2
   345      7
   344      1
   343      3
   342      3
   341      4
   340      1
   339      4
   338      2
   337      1
   336      4
   335      1
   334      3
   333      2
   332      3
   331      4
   330      3
   329      1
   328      2
   327      1
   326      3
   325      3
   324      2
   323      4
   322      4
   321      2
   320      4
   319      1
   318      1
   317      3
   315      2
   314      1
   313      5
   312      1
   311      1
   310      2
   309      2
   308      1
   307      1
   306      1
   305      4
   304      2
   303      4
   302      3
   301      3
   300      3
   298      1
   297      1
   296      3
   295      2
   294      3
   293      2
   292      4
   291      1
   290      3
   289      2
   288      1
   287      1
   286      1
   285      1
   284      2
   283      1
   282      1
   281      5
   280      1
   277      4
   276      7
   275      4
   274      6
   273      5
   272      5
   271      4
   270      2
   269      1
   268      2
   267      3
   266      4
   265      3
   264      2
   263      1
   262      1
   261      3
   260      1
   259      3
   258      2
   257      1
   256      1
   255      3
   253      5
   252      3
   250      4
   249      2
   248      1
   247      2
   246      3
   245      2
   244      7
   243      1
   242      5
   241      1
   240      3
   239      5
   238      3
   237      2
   236      1
   235      3
   234      2
   233      4
   232      6
   231      2
   230      2
   229      4
   228      1
   227      3
   226      7
   224      5
   223      6
   222      6
   221      5
   220      2
   219      2
   218      4
   217      3
   216      2
   215      2
   214      2
   213      1
   212      1
   210      1
   209      3
   208      4
   207      1
   206      4
   205      2
   204      2
   203      1
   202      5
   201      1
   200      2
   199      1
   198      2
   197      4
   195      4
   194      4
   193      2
   192      1
   191      1
   190      3
   189      8
   188      3
   185      3
   184      5
   183      5
   182      2
   181      1
   179      1
   178      2
   177      2
   176      3
   175      6
   174      2
   173      1
   172      2
   171      3
   170      3
   169      7
   167      2
   166      2
   165      6
   163      2
   162      3
   161      6
   160      5
   159      1
   158      3
   157      3
   156      2
   155      3
   154      3
   153      1
   152      3
   151      1
   150      3
   149      1
   148      1
   147      2
   144      5
   143      4
   142      5
   141      3
   140      2
   139      2
   138      2
   137      1
   136      8
   135      4
   134      2
   133      3
   132      4
   131      4
   130      4
   129      2
   128      3
   127      4
   126      2
   125      3
   124      2
   123      1
   122      2
   120      4
   118      1
   117      2
   116      2
   115      4
   114      2
   113      2
   112      8
   110      2
   109      1
   108      1
   107      2
   106      5
   105      3
   104      4
   103      4
   102      2
   101      1
   100      1
    99      2
    98      2
    97      1
    96      3
    95      5
    94      2
    93      3
    92      3
    90      2
    89      4
    88      3
    87      4
    86      1
    85      2
    84      1
    83      1
    82      2
    81      1
    80      3
    79      1
    78      1
    77      4
    76      2
    75      4
    74      1
    73      5
    72      3
    71      4
    70      3
    69      1
    68      4
    67      1
    65      2
    64      2
    63      2
    62      4
    61      2
    60      3
    59      1
    58      4
    57      1
    56      3
    55      2
    54      4
    53      2
    52      3
    51      2
    50      2




The initial LP solution: time=0.38


File: BPP_750_500_0.1_0.7_7.txt  Instance No. 1
Wed Feb 25 13:49:34 2015

LP solution: lpval=298.6520000000002 lpbnd=299

1: 0:1 185:1 obj 1\\
3: 1:1 183:1 obj 1\\
0.7159962046910102: 2:1 182:1 obj 1\\
2: 3:1 181:1 obj 1\\
3: 4:1 180:1 obj 1\\
0.04834160954394862: 4:1 229:1 274:1 obj 1\\
1.951658390456051: 4:1 237:1 266:1 obj 1\\
1: 5:1 179:1 obj 1\\
2.806242060755955: 6:1 178:1 obj 1\\
2.819783402344183: 7:1 177:1 obj 1\\
1: 8:1 176:1 obj 1\\
1.876522766612906: 8:1 240:1 259:1 obj 1\\
1: 9:1 175:1 obj 1\\
4: 10:1 174:1 obj 1\\
2: 11:1 173:1 obj 1\\
0.7233564995353943: 12:1 172:1 obj 1\\
1: 14:1 171:1 obj 1\\
2: 15:1 170:1 obj 1\\
1.738713496872264: 16:1 169:1 obj 1\\
4: 18:1 168:1 obj 1\\
2.189781218978036: 19:1 167:1 obj 1\\
1: 20:1 166:1 obj 1\\
2: 21:1 165:1 obj 1\\
1: 22:1 164:1 obj 1\\
1.51237323038687: 23:1 163:1 obj 1\\
3: 24:1 162:1 obj 1\\
2: 25:1 161:1 obj 1\\
2: 26:1 160:1 obj 1\\
2: 27:1 159:1 obj 1\\
1: 28:1 158:1 obj 1\\
1.795393810435595: 29:1 203:1 278:1 obj 1\\
0.1831233116780708: 30:1 157:1 obj 1\\
1: 31:1 156:1 obj 1\\
3: 32:1 155:1 obj 1\\
2: 33:1 153:1 obj 1\\
2: 35:1 197:1 277:1 obj 1\\
1: 36:1 152:1 obj 1\\
1: 37:1 151:1 obj 1\\
2: 38:1 150:1 obj 1\\
1: 39:1 149:1 obj 1\\
1: 40:1 148:1 obj 1\\
1: 41:1 147:1 obj 1\\
0.7953938104355949: 42:1 146:1 obj 1\\
4: 43:1 145:1 obj 1\\
2: 44:1 189:1 276:1 obj 1\\
4: 45:1 144:1 obj 1\\
2: 46:1 143:1 obj 1\\
1: 46:1 190:1 273:1 obj 1\\
0.7116755390749765: 47:1 142:1 obj 1\\
0.5754579735879659: 47:1 191:1 271:1 obj 1\\
1.467284249999995: 48:1 141:1 obj 1\\
1: 49:1 139:1 obj 1\\
1: 50:1 138:1 obj 1\\
2: 51:1 137:1 obj 1\\
2: 52:1 136:1 obj 1\\
3: 53:1 135:1 obj 1\\
1: 54:1 134:1 obj 1\\
3.425801281102109: 55:1 133:1 obj 1\\
1: 56:1 132:1 obj 1\\
1: 57:1 131:1 obj 1\\
1: 58:1 184:1 268:1 obj 1\\
1: 58:1 190:1 261:1 obj 1\\
1: 59:1 130:1 obj 1\\
1: 60:1 129:1 obj 1\\
1: 61:1 128:1 obj 1\\
0.9933021212804909: 62:1 127:1 obj 1\\
2: 63:1 126:1 obj 1\\
0.8469018758951157: 64:1 125:1 obj 1\\
1: 65:1 124:1 obj 1\\
2: 66:1 123:1 obj 1\\
0.7627219186762061: 67:1 122:1 obj 1\\
4: 68:1 119:1 obj 1\\
5: 69:1 118:1 obj 1\\
6: 71:1 117:1 obj 1\\
3: 72:1 116:1 obj 1\\
1: 73:1 115:1 obj 1\\
1: 73:1 191:1 243:1 obj 1\\
0.1340634701359153: 73:1 249:1 254:1 256:1 obj 1\\
4: 74:1 114:1 obj 1\\
1.485545789769418: 75:1 113:1 obj 1\\
1: 76:1 112:1 obj 1\\
2: 77:1 111:1 obj 1\\
3: 78:1 110:1 obj 1\\
2: 79:1 109:1 obj 1\\
3: 80:1 108:1 obj 1\\
1: 81:1 107:1 obj 1\\
1: 81:1 171:1 258:1 obj 1\\
1: 82:1 106:1 obj 1\\
1: 83:1 105:1 obj 1\\
3: 84:1 104:1 obj 1\\
1: 85:1 103:1 obj 1\\
1: 86:1 102:1 obj 1\\
2: 87:1 101:1 obj 1\\
1: 88:1 100:1 obj 1\\
1: 89:1 99:1 obj 1\\
2: 90:1 98:1 obj 1\\
2: 91:1 96:1 obj 1\\
1: 92:1 95:1 obj 1\\
2: 93:2 obj 1\\
1.500207023997737: 99:1 139:1 274:1 obj 1\\
1: 111:1 147:1 254:1 obj 1\\
0.11691069525137: 111:1 230:1 232:1 259:1 obj 1\\
1.176154413269493: 121:2 270:1 obj 1\\
0.4258012811021086: 122:1 156:1 232:1 obj 1\\
1.749896488001131: 139:1 175:1 195:1 obj 1\\
1.416655759231624: 151:2 211:1 obj 1\\
0.7416495697258468: 196:1 198:2 237:1 obj 1\\
0.6917996798081738: 199:2 200:1 231:1 obj 1\\
0.4922324096859914: 204:1 205:2 216:1 obj 1\\
0.5045512633381162: 215:2 216:1 238:1 267:1 obj 1\\
0.8065768015644628: 227:3 228:1 240:1 obj 1\\
0.2883244609250235: 140:1 142:1 230:1 obj 1\\
0.17569776910324: 220:1 222:1 229:1 230:1 248:1 obj 1\\
0.1802165976558172: 7:1 237:1 263:1 obj 1\\
0.06323772108114134: 34:1 237:2 obj 1\\
0.2046061895644051: 42:1 189:1 278:1 obj 1\\
1.532715750000005: 48:1 219:1 241:1 obj 1\\
0.006697878719509109: 62:1 213:1 233:1 obj 1\\
1.684678374218066: 105:1 202:2 obj 1\\
0.2260890674507396: 152:2 209:1 obj 1\\
1.749896488001131: 29:1 219:1 261:1 obj 1\\
2: 69:1 203:1 236:1 obj 1\\
1.224039378647189: 72:1 185:1 252:1 obj 1\\
1: 99:1 151:1 262:1 obj 1\\
0.2612865031277365: 112:1 190:1 207:1 obj 1\\
0.2432448713528066: 192:3 252:1 obj 1\\
0.4190670747203653: 8:1 230:1 269:1 obj 1\\
0.7044101586667288: 8:1 242:1 257:1 obj 1\\
0.9627528755194521: 39:1 207:1 263:1 obj 1\\
0.2372780813237939: 67:1 186:1 258:1 obj 1\\
0.1937579392440448: 103:1 178:1 227:1 obj 1\\
2: 104:1 197:1 208:1 obj 1\\
0.5327157500000048: 119:1 141:1 252:1 obj 1\\
0.9908974733237677: 120:1 173:1 215:1 obj 1\\
1.001229684110016: 146:2 219:1 obj 1\\
0.6164006403836524: 155:2 199:1 obj 1\\
0.07279362836530501: 166:1 211:1 221:1 232:1 obj 1\\
0.1937579392440448: 6:1 231:1 270:1 obj 1\\
1.126977771182973: 23:1 242:2 obj 1\\
0.8168766883219292: 30:1 205:1 275:1 obj 1\\
0.2029983010732445: 75:1 216:2 obj 1\\
1.575457973587966: 86:1 197:1 225:1 obj 1\\
1.315321625781934: 97:1 206:2 obj 1\\
0.518674368680679: 101:1 155:1 254:1 obj 1\\
0.2046061895644051: 117:1 189:1 203:1 obj 1\\
0.810218781021964: 124:1 167:1 219:1 obj 1\\
0.5033489393597546: 127:2 259:1 obj 1\\
0.5: 128:2 257:1 obj 1\\
0.2655692710669701: 135:1 174:1 200:1 obj 1\\
0.2840037953089898: 182:1 221:1 248:1 250:1 251:1 obj 1\\
0.01217269736982574: 201:2 233:1 259:1 260:1 obj 1\\
0.3153636542126645: 13:1 225:1 269:1 obj 1\\
1.204410158666729: 17:1 217:1 274:1 obj 1\\
0.3606489984301572: 23:1 219:1 266:1 obj 1\\
0.8070890636680124: 28:1 233:1 247:1 obj 1\\
0.7159962046910102: 54:1 205:1 250:1 obj 1\\
0.2840037953089898: 54:1 219:1 235:1 obj 1\\
0.5439527127561907: 91:1 192:1 224:1 obj 1\\
1: 92:1 171:1 246:1 obj 1\\
0.7538837951570043: 101:1 204:2 obj 1\\
0.7498964880011314: 106:1 139:1 267:1 obj 1\\
0.7387134968722635: 112:1 191:1 206:1 obj 1\\
0.9374385033508141: 120:1 194:2 obj 1\\
0.5741987188978914: 133:1 156:1 220:1 obj 1\\
1: 154:1 175:1 179:1 obj 1\\
0.8168766883219292: 157:1 162:1 189:1 obj 1\\
0.180216597655817: 166:2 177:1 obj 1\\
0.2766435004646057: 12:1 247:1 248:1 obj 1\\
2.630087647486462: 13:1 224:1 270:1 obj 1\\
1: 13:1 239:1 255:1 obj 1\\
1.795589841333271: 17:1 234:1 257:1 obj 1\\
0.1740403602426527: 26:1 233:1 249:1 obj 1\\
1.250103511998869: 27:1 220:1 261:1 obj 1\\
1.247041207791586: 35:1 200:1 274:1 obj 1\\
1.712866487337059: 47:1 226:1 235:1 obj 1\\
1: 51:1 214:1 242:1 obj 1\\
0.9641679883372909: 70:1 168:1 272:1 obj 1\\
2: 73:1 171:1 265:1 obj 1\\
0.9051093905109819: 92:1 154:1 264:1 obj 1\\
1.684678374218066: 97:1 192:1 218:1 obj 1\\
0.2485243505520163: 99:1 155:1 256:1 obj 1\\
0.2501035119988686: 106:1 195:1 208:1 obj 1\\
1.77391093254926: 111:1 189:1 209:1 obj 1\\
0.5144542102305826: 113:1 146:1 253:1 obj 1\\
0.5089550985938549: 121:1 150:1 240:1 obj 1\\
0.5765490620524422: 125:1 153:1 232:1 obj 1\\
0.3672153644665149: 135:2 241:1 obj 1\\
0.3525096834052537: 140:1 185:1 186:1 obj 1\\
1.706171049152906: 151:1 168:1 191:1 obj 1\\
1.485545789769418: 154:1 212:2 253:1 obj 1\\
0.2840037953089898: 2:1 241:1 263:1 obj 1\\
0.810218781021964: 19:1 235:1 254:1 obj 1\\
0.4547097015632737: 29:1 228:1 251:1 obj 1\\
0.9367622789188587: 34:1 216:1 258:1 obj 1\\
0.8070890636680124: 35:1 227:1 245:1 obj 1\\
0.807945333228774: 35:1 232:1 240:1 obj 1\\
0.2583504302741532: 57:1 196:1 256:1 obj 1\\
1: 70:1 187:1 252:1 obj 1\\
0.82430223089676: 73:1 212:1 222:1 obj 1\\
0.2655692710669701: 79:1 162:1 269:1 obj 1\\
0.6876926111137913: 99:1 146:1 266:1 obj 1\\
0.7241723675070098: 101:1 151:1 260:1 obj 1\\
1: 103:1 190:1 214:1 obj 1\\
0.3153216257819341: 105:1 186:1 218:1 obj 1\\
1.10917837219937: 111:1 172:1 225:1 obj 1\\
0.9796574803868647: 119:1 191:1 198:1 obj 1\\
2.035832011662709: 120:2 272:1 obj 1\\
2: 121:1 188:1 201:1 obj 1\\
0.8114768002216853: 122:1 152:1 238:1 obj 1\\
1.094890609489018: 124:2 264:1 obj 1\\
0.5765490620524422: 125:1 171:1 213:1 obj 1\\
0.3894089828719713: 162:2 244:1 263:1 obj 1\\
0.6839719364401984: 197:3 238:1 obj 1\\
0.2636549351231645: 210:1 213:1 221:1 248:1 260:1 obj 1\\
2: 4:1 235:1 268:1 obj 1\\
0.2612865031277365: 16:1 219:1 273:1 obj 1\\
1.825959639757347: 26:1 224:1 258:1 obj 1\\
0.7498964880011314: 27:1 208:1 275:1 obj 1\\
0.1379243953116278: 35:1 211:1 263:1 obj 1\\
0.5741987188978914: 55:1 226:2 obj 1\\
0.1530981241048843: 64:1 213:1 231:1 obj 1\\
1.610591017128029: 70:1 193:1 244:1 obj 1\\
0.3795476412025407: 70:1 221:1 267:1 273:1 obj 1\\
0.7759606213528114: 72:1 207:1 229:1 obj 1\\
1.73443072893303: 79:1 174:1 256:1 obj 1\\
1.660457445910538: 91:1 201:1 216:1 obj 1\\
1: 99:1 161:1 249:1 obj 1\\
1.204410158666729: 99:1 175:1 234:1 obj 1\\
0.6306432515638682: 101:1 202:1 206:1 obj 1\\
0.4910449014061451: 103:1 150:1 259:1 obj 1\\
0.7953938104355949: 117:1 154:1 239:1 obj 1\\
0.4876267696131305: 119:1 163:1 227:1 obj 1\\
0.9162674358673819: 132:2 247:1 obj 1\\
0.7363450648768355: 151:1 152:1 210:1 obj 1\\
0.4234509379475578: 153:1 171:1 185:1 obj 1\\
0.3894089828719713: 154:1 193:1 241:2 obj 1\\
1: 15:1 226:1 266:1 obj 1\\
0.1929109363319876: 28:1 235:1 245:1 obj 1\\
0.0372471244805479: 39:1 227:1 241:1 obj 1\\
1.537043380161442: 57:1 198:1 254:1 obj 1\\
0.2046061895644051: 57:1 212:1 239:1 obj 1\\
2: 66:1 219:1 223:1 obj 1\\
0.8748770067016283: 66:1 256:3 obj 1\\
0.04569335333213975: 70:1 175:1 263:1 obj 1\\
0.3114559091573381: 75:1 168:1 267:1 obj 1\\
0.4245420264120341: 86:1 154:1 271:1 obj 1\\
0.2612865031277365: 90:1 169:1 251:1 obj 1\\
0.7387134968722635: 90:1 190:1 228:1 obj 1\\
0.7955898413332712: 91:1 200:1 217:1 obj 1\\
1.566773176323061: 94:1 166:1 249:1 obj 1\\
0.4332268236769394: 94:1 231:2 275:1 obj 1\\
0.3591658556697228: 99:1 140:1 273:1 obj 1\\
0.3726262170914387: 101:1 197:1 211:1 obj 1\\
0.3151971593498101: 103:1 201:1 205:1 obj 1\\
1: 110:1 162:1 238:1 obj 1\\
1: 125:1 181:1 252:1 276:1 obj 1\\
0.05454869830087347: 13:1 227:1 267:1 obj 1\\
0.1251229932983717: 66:1 194:1 249:1 obj 1\\
0.04163429896732471: 73:1 192:1 242:1 obj 1\\
0.09489060948901801: 92:1 186:1 231:1 obj 1\\
0.1387360748671582: 121:1 162:1 226:1 obj 1\\
0.1674651282652362: 132:1 172:1 205:1 obj 1\\
0.009102526676232348: 168:2 173:1 obj 1\\






File: BPP_750_500_0.1_0.7_7.txt  Instance No. 1
Wed Feb 25 13:49:34 2015

LP0 Time: 0.38 IPTime: 0.38 The best integer solution (299):

1: 0:1 185:1 obj 1\\
3: 1:1 183:1 obj 1\\
1: 2:1 182:1 obj 1\\
2: 3:1 181:1 obj 1\\
3: 4:1 180:1 obj 1\\
1: 4:1 181:1 obj 1\\
1: 4:1 229:1 274:1 obj 1\\
2: 4:1 237:1 266:1 obj 1\\
1: 5:1 179:1 obj 1\\
3: 6:1 178:1 obj 1\\
3: 7:1 177:1 obj 1\\
1: 8:1 176:1 obj 1\\
1: 8:1 179:1 obj 1\\
2: 8:1 240:1 259:1 obj 1\\
1: 9:1 175:1 obj 1\\
4: 10:1 174:1 obj 1\\
2: 11:1 173:1 obj 1\\
1: 12:1 172:1 obj 1\\
1: 13:1 172:1 obj 1\\
1: 13:1 173:1 obj 1\\
2: 13:1 174:1 obj 1\\
1: 14:1 171:1 obj 1\\
2: 15:1 170:1 obj 1\\
1: 15:1 226:1 268:1 obj 1\\
2: 16:1 169:1 obj 1\\
3: 17:1 171:1 obj 1\\
4: 18:1 168:1 obj 1\\
3: 19:1 167:1 obj 1\\
1: 20:1 166:1 obj 1\\
2: 21:1 165:1 obj 1\\
1: 22:1 164:1 obj 1\\
2: 23:1 163:1 obj 1\\
1: 23:1 168:1 obj 1\\
3: 24:1 162:1 obj 1\\
2: 25:1 161:1 obj 1\\
2: 26:1 160:1 obj 1\\
1: 26:1 162:1 obj 1\\
1: 26:1 166:1 obj 1\\
2: 27:1 159:1 obj 1\\
2: 27:1 162:1 obj 1\\
1: 28:1 158:1 obj 1\\
1: 28:1 261:1 273:1 275:1 obj 1\\
1: 29:1 161:1 obj 1\\
2: 29:1 203:1 278:1 obj 1\\
1: 29:1 231:1 249:1 obj 1\\
1: 30:1 157:1 obj 1\\
1: 31:1 156:1 obj 1\\
3: 32:1 155:1 obj 1\\
2: 33:1 153:1 obj 1\\
1: 34:1 154:1 obj 1\\
1: 35:1 154:1 obj 1\\
2: 35:1 155:1 obj 1\\
2: 35:1 197:1 277:1 obj 1\\
1: 36:1 152:1 obj 1\\
1: 37:1 151:1 obj 1\\
2: 38:1 150:1 obj 1\\
1: 39:1 149:1 obj 1\\
1: 39:1 150:1 obj 1\\
1: 40:1 148:1 obj 1\\
1: 41:1 147:1 obj 1\\
1: 42:1 146:1 obj 1\\
4: 43:1 145:1 obj 1\\
2: 44:1 189:1 276:1 obj 1\\
4: 45:1 144:1 obj 1\\
2: 46:1 143:1 obj 1\\
1: 46:1 190:1 273:1 obj 1\\
1: 47:1 142:1 obj 1\\
1: 47:1 191:1 271:1 obj 1\\
1: 47:1 256:2 276:1 obj 1\\
2: 48:1 141:1 obj 1\\
1: 48:1 188:1 275:1 obj 1\\
1: 49:1 139:1 obj 1\\
1: 50:1 138:1 obj 1\\
2: 51:1 137:1 obj 1\\
1: 51:1 139:1 obj 1\\
2: 52:1 136:1 obj 1\\
3: 53:1 135:1 obj 1\\
1: 54:1 134:1 obj 1\\
1: 54:1 135:1 obj 1\\
4: 55:1 133:1 obj 1\\
1: 56:1 132:1 obj 1\\
1: 57:1 131:1 obj 1\\
2: 57:1 132:1 obj 1\\
1: 58:1 184:1 268:1 obj 1\\
1: 58:1 190:1 261:1 obj 1\\
1: 59:1 130:1 obj 1\\
1: 60:1 129:1 obj 1\\
1: 61:1 128:1 obj 1\\
1: 62:1 127:1 obj 1\\
2: 63:1 126:1 obj 1\\
1: 64:1 125:1 obj 1\\
1: 65:1 124:1 obj 1\\
2: 66:1 123:1 obj 1\\
3: 66:1 124:1 obj 1\\
1: 67:1 122:1 obj 1\\
4: 68:1 119:1 obj 1\\
5: 69:1 118:1 obj 1\\
1: 69:1 175:1 265:1 obj 1\\
1: 69:1 246:1 248:1 268:1 obj 1\\
4: 70:1 120:1 obj 1\\
6: 71:1 117:1 obj 1\\
3: 72:1 116:1 obj 1\\
2: 72:1 119:1 obj 1\\
1: 73:1 115:1 obj 1\\
1: 73:1 128:1 obj 1\\
1: 73:1 191:1 243:1 obj 1\\
1: 73:1 198:1 238:1 obj 1\\
1: 73:1 249:1 254:1 256:1 obj 1\\
4: 74:1 114:1 obj 1\\
2: 75:1 113:1 obj 1\\
1: 76:1 112:1 obj 1\\
2: 77:1 111:1 obj 1\\
3: 78:1 110:1 obj 1\\
2: 79:1 109:1 obj 1\\
1: 79:1 110:1 obj 1\\
1: 79:1 111:1 obj 1\\
3: 80:1 108:1 obj 1\\
1: 81:1 107:1 obj 1\\
1: 81:1 171:1 258:1 obj 1\\
1: 82:1 106:1 obj 1\\
1: 83:1 105:1 obj 1\\
3: 84:1 104:1 obj 1\\
1: 85:1 103:1 obj 1\\
1: 86:1 102:1 obj 1\\
2: 86:1 103:1 obj 1\\
2: 87:1 101:1 obj 1\\
1: 88:1 100:1 obj 1\\
1: 89:1 99:1 obj 1\\
2: 90:1 98:1 obj 1\\
1: 90:1 99:1 obj 1\\
2: 91:1 96:1 obj 1\\
3: 91:1 97:1 obj 1\\
1: 92:1 95:1 obj 1\\
2: 92:1 99:1 obj 1\\
2: 93:2 obj 1\\
1: 94:2 obj 1\\
1: 99:1 139:1 274:1 obj 1\\
2: 99:1 235:1 239:1 258:1 obj 1\\
1: 101:1 140:1 272:1 obj 1\\
2: 101:1 189:1 270:1 272:1 obj 1\\
1: 104:1 189:1 266:1 274:1 obj 1\\
1: 104:1 234:2 260:1 obj 1\\
1: 105:1 188:1 225:1 obj 1\\
1: 105:1 226:2 274:1 obj 1\\
1: 106:1 154:1 252:1 obj 1\\
1: 111:1 147:1 254:1 obj 1\\
1: 111:1 198:1 203:1 obj 1\\
1: 111:1 230:1 232:1 259:1 obj 1\\
1: 112:1 146:1 257:1 obj 1\\
1: 117:1 146:1 249:1 obj 1\\
2: 120:1 192:1 197:1 obj 1\\
1: 121:1 139:1 254:1 obj 1\\
2: 121:2 270:1 obj 1\\
1: 122:1 156:1 232:1 obj 1\\
1: 125:1 191:1 193:1 obj 1\\
1: 125:1 224:1 225:1 261:1 obj 1\\
1: 127:1 146:1 244:1 obj 1\\
1: 139:1 175:1 195:1 obj 1\\
1: 151:1 209:1 210:1 264:1 obj 1\\
1: 151:1 212:2 258:1 obj 1\\
1: 151:1 214:2 252:1 obj 1\\
2: 151:2 211:1 obj 1\\
2: 152:1 168:1 190:1 obj 1\\
1: 153:1 171:1 252:1 256:1 obj 1\\
1: 154:2 203:1 obj 1\\
1: 166:1 240:1 242:1 253:1 257:1 obj 1\\
1: 175:2 213:1 266:1 obj 1\\
1: 185:2 192:1 269:1 obj 1\\
1: 186:1 187:1 193:1 265:1 obj 1\\
1: 191:2 201:1 247:1 obj 1\\
1: 194:2 195:1 245:1 obj 1\\
1: 196:1 198:2 237:1 obj 1\\
2: 197:2 200:1 235:1 obj 1\\
1: 199:2 200:1 231:1 obj 1\\
1: 201:3 226:1 obj 1\\
1: 202:1 204:1 205:1 219:1 obj 1\\
1: 202:3 223:1 obj 1\\
1: 204:1 205:2 216:1 obj 1\\
2: 206:2 207:1 212:1 obj 1\\
1: 208:3 209:1 obj 1\\
1: 215:2 216:1 238:1 267:1 obj 1\\
1: 216:2 217:1 235:1 267:1 obj 1\\
1: 217:1 218:2 234:1 264:1 obj 1\\
1: 219:2 221:1 228:1 263:1 obj 1\\
1: 219:2 222:1 227:1 263:1 obj 1\\
1: 219:3 233:1 262:1 obj 1\\
1: 220:2 223:1 225:1 261:1 obj 1\\
1: 224:4 253:1 obj 1\\
1: 227:3 228:1 240:1 obj 1\\
1: 236:2 238:1 254:1 256:1 257:1 obj 1\\
1: 241:3 244:1 252:1 255:1 obj 1\\
1: 242:3 247:1 250:1 251:1 obj 1\\



The last LP solution 


File: BPP_750_500_0.1_0.7_7.txt  Instance No. 1
Wed Feb 25 13:49:34 2015

LP solution: lpval=298.6520000000002 lpbnd=299

1: 0:1 185:1 obj 1\\
3: 1:1 183:1 obj 1\\
0.7159962046910102: 2:1 182:1 obj 1\\
2: 3:1 181:1 obj 1\\
3: 4:1 180:1 obj 1\\
0.04834160954394862: 4:1 229:1 274:1 obj 1\\
1.951658390456051: 4:1 237:1 266:1 obj 1\\
1: 5:1 179:1 obj 1\\
2.806242060755955: 6:1 178:1 obj 1\\
2.819783402344183: 7:1 177:1 obj 1\\
1: 8:1 176:1 obj 1\\
1.876522766612906: 8:1 240:1 259:1 obj 1\\
1: 9:1 175:1 obj 1\\
4: 10:1 174:1 obj 1\\
2: 11:1 173:1 obj 1\\
0.7233564995353943: 12:1 172:1 obj 1\\
1: 14:1 171:1 obj 1\\
2: 15:1 170:1 obj 1\\
1.738713496872264: 16:1 169:1 obj 1\\
4: 18:1 168:1 obj 1\\
2.189781218978036: 19:1 167:1 obj 1\\
1: 20:1 166:1 obj 1\\
2: 21:1 165:1 obj 1\\
1: 22:1 164:1 obj 1\\
1.51237323038687: 23:1 163:1 obj 1\\
3: 24:1 162:1 obj 1\\
2: 25:1 161:1 obj 1\\
2: 26:1 160:1 obj 1\\
2: 27:1 159:1 obj 1\\
1: 28:1 158:1 obj 1\\
1.795393810435595: 29:1 203:1 278:1 obj 1\\
0.1831233116780708: 30:1 157:1 obj 1\\
1: 31:1 156:1 obj 1\\
3: 32:1 155:1 obj 1\\
2: 33:1 153:1 obj 1\\
2: 35:1 197:1 277:1 obj 1\\
1: 36:1 152:1 obj 1\\
1: 37:1 151:1 obj 1\\
2: 38:1 150:1 obj 1\\
1: 39:1 149:1 obj 1\\
1: 40:1 148:1 obj 1\\
1: 41:1 147:1 obj 1\\
0.7953938104355949: 42:1 146:1 obj 1\\
4: 43:1 145:1 obj 1\\
2: 44:1 189:1 276:1 obj 1\\
4: 45:1 144:1 obj 1\\
2: 46:1 143:1 obj 1\\
1: 46:1 190:1 273:1 obj 1\\
0.7116755390749765: 47:1 142:1 obj 1\\
0.5754579735879659: 47:1 191:1 271:1 obj 1\\
1.467284249999995: 48:1 141:1 obj 1\\
1: 49:1 139:1 obj 1\\
1: 50:1 138:1 obj 1\\
2: 51:1 137:1 obj 1\\
2: 52:1 136:1 obj 1\\
3: 53:1 135:1 obj 1\\
1: 54:1 134:1 obj 1\\
3.425801281102109: 55:1 133:1 obj 1\\
1: 56:1 132:1 obj 1\\
1: 57:1 131:1 obj 1\\
1: 58:1 184:1 268:1 obj 1\\
1: 58:1 190:1 261:1 obj 1\\
1: 59:1 130:1 obj 1\\
1: 60:1 129:1 obj 1\\
1: 61:1 128:1 obj 1\\
0.9933021212804909: 62:1 127:1 obj 1\\
2: 63:1 126:1 obj 1\\
0.8469018758951157: 64:1 125:1 obj 1\\
1: 65:1 124:1 obj 1\\
2: 66:1 123:1 obj 1\\
0.7627219186762061: 67:1 122:1 obj 1\\
4: 68:1 119:1 obj 1\\
5: 69:1 118:1 obj 1\\
6: 71:1 117:1 obj 1\\
3: 72:1 116:1 obj 1\\
1: 73:1 115:1 obj 1\\
1: 73:1 191:1 243:1 obj 1\\
0.1340634701359153: 73:1 249:1 254:1 256:1 obj 1\\
4: 74:1 114:1 obj 1\\
1.485545789769418: 75:1 113:1 obj 1\\
1: 76:1 112:1 obj 1\\
2: 77:1 111:1 obj 1\\
3: 78:1 110:1 obj 1\\
2: 79:1 109:1 obj 1\\
3: 80:1 108:1 obj 1\\
1: 81:1 107:1 obj 1\\
1: 81:1 171:1 258:1 obj 1\\
1: 82:1 106:1 obj 1\\
1: 83:1 105:1 obj 1\\
3: 84:1 104:1 obj 1\\
1: 85:1 103:1 obj 1\\
1: 86:1 102:1 obj 1\\
2: 87:1 101:1 obj 1\\
1: 88:1 100:1 obj 1\\
1: 89:1 99:1 obj 1\\
2: 90:1 98:1 obj 1\\
2: 91:1 96:1 obj 1\\
1: 92:1 95:1 obj 1\\
2: 93:2 obj 1\\
1.500207023997737: 99:1 139:1 274:1 obj 1\\
1: 111:1 147:1 254:1 obj 1\\
0.11691069525137: 111:1 230:1 232:1 259:1 obj 1\\
1.176154413269493: 121:2 270:1 obj 1\\
0.4258012811021086: 122:1 156:1 232:1 obj 1\\
1.749896488001131: 139:1 175:1 195:1 obj 1\\
1.416655759231624: 151:2 211:1 obj 1\\
0.7416495697258468: 196:1 198:2 237:1 obj 1\\
0.6917996798081738: 199:2 200:1 231:1 obj 1\\
0.4922324096859914: 204:1 205:2 216:1 obj 1\\
0.5045512633381162: 215:2 216:1 238:1 267:1 obj 1\\
0.8065768015644628: 227:3 228:1 240:1 obj 1\\
0.2883244609250235: 140:1 142:1 230:1 obj 1\\
0.17569776910324: 220:1 222:1 229:1 230:1 248:1 obj 1\\
0.1802165976558172: 7:1 237:1 263:1 obj 1\\
0.06323772108114134: 34:1 237:2 obj 1\\
0.2046061895644051: 42:1 189:1 278:1 obj 1\\
1.532715750000005: 48:1 219:1 241:1 obj 1\\
0.006697878719509109: 62:1 213:1 233:1 obj 1\\
1.684678374218066: 105:1 202:2 obj 1\\
0.2260890674507396: 152:2 209:1 obj 1\\
1.749896488001131: 29:1 219:1 261:1 obj 1\\
2: 69:1 203:1 236:1 obj 1\\
1.224039378647189: 72:1 185:1 252:1 obj 1\\
1: 99:1 151:1 262:1 obj 1\\
0.2612865031277365: 112:1 190:1 207:1 obj 1\\
0.2432448713528066: 192:3 252:1 obj 1\\
0.4190670747203653: 8:1 230:1 269:1 obj 1\\
0.7044101586667288: 8:1 242:1 257:1 obj 1\\
0.9627528755194521: 39:1 207:1 263:1 obj 1\\
0.2372780813237939: 67:1 186:1 258:1 obj 1\\
0.1937579392440448: 103:1 178:1 227:1 obj 1\\
2: 104:1 197:1 208:1 obj 1\\
0.5327157500000048: 119:1 141:1 252:1 obj 1\\
0.9908974733237677: 120:1 173:1 215:1 obj 1\\
1.001229684110016: 146:2 219:1 obj 1\\
0.6164006403836524: 155:2 199:1 obj 1\\
0.07279362836530501: 166:1 211:1 221:1 232:1 obj 1\\
0.1937579392440448: 6:1 231:1 270:1 obj 1\\
1.126977771182973: 23:1 242:2 obj 1\\
0.8168766883219292: 30:1 205:1 275:1 obj 1\\
0.2029983010732445: 75:1 216:2 obj 1\\
1.575457973587966: 86:1 197:1 225:1 obj 1\\
1.315321625781934: 97:1 206:2 obj 1\\
0.518674368680679: 101:1 155:1 254:1 obj 1\\
0.2046061895644051: 117:1 189:1 203:1 obj 1\\
0.810218781021964: 124:1 167:1 219:1 obj 1\\
0.5033489393597546: 127:2 259:1 obj 1\\
0.5: 128:2 257:1 obj 1\\
0.2655692710669701: 135:1 174:1 200:1 obj 1\\
0.2840037953089898: 182:1 221:1 248:1 250:1 251:1 obj 1\\
0.01217269736982574: 201:2 233:1 259:1 260:1 obj 1\\
0.3153636542126645: 13:1 225:1 269:1 obj 1\\
1.204410158666729: 17:1 217:1 274:1 obj 1\\
0.3606489984301572: 23:1 219:1 266:1 obj 1\\
0.8070890636680124: 28:1 233:1 247:1 obj 1\\
0.7159962046910102: 54:1 205:1 250:1 obj 1\\
0.2840037953089898: 54:1 219:1 235:1 obj 1\\
0.5439527127561907: 91:1 192:1 224:1 obj 1\\
1: 92:1 171:1 246:1 obj 1\\
0.7538837951570043: 101:1 204:2 obj 1\\
0.7498964880011314: 106:1 139:1 267:1 obj 1\\
0.7387134968722635: 112:1 191:1 206:1 obj 1\\
0.9374385033508141: 120:1 194:2 obj 1\\
0.5741987188978914: 133:1 156:1 220:1 obj 1\\
1: 154:1 175:1 179:1 obj 1\\
0.8168766883219292: 157:1 162:1 189:1 obj 1\\
0.180216597655817: 166:2 177:1 obj 1\\
0.2766435004646057: 12:1 247:1 248:1 obj 1\\
2.630087647486462: 13:1 224:1 270:1 obj 1\\
1: 13:1 239:1 255:1 obj 1\\
1.795589841333271: 17:1 234:1 257:1 obj 1\\
0.1740403602426527: 26:1 233:1 249:1 obj 1\\
1.250103511998869: 27:1 220:1 261:1 obj 1\\
1.247041207791586: 35:1 200:1 274:1 obj 1\\
1.712866487337059: 47:1 226:1 235:1 obj 1\\
1: 51:1 214:1 242:1 obj 1\\
0.9641679883372909: 70:1 168:1 272:1 obj 1\\
2: 73:1 171:1 265:1 obj 1\\
0.9051093905109819: 92:1 154:1 264:1 obj 1\\
1.684678374218066: 97:1 192:1 218:1 obj 1\\
0.2485243505520163: 99:1 155:1 256:1 obj 1\\
0.2501035119988686: 106:1 195:1 208:1 obj 1\\
1.77391093254926: 111:1 189:1 209:1 obj 1\\
0.5144542102305826: 113:1 146:1 253:1 obj 1\\
0.5089550985938549: 121:1 150:1 240:1 obj 1\\
0.5765490620524422: 125:1 153:1 232:1 obj 1\\
0.3672153644665149: 135:2 241:1 obj 1\\
0.3525096834052537: 140:1 185:1 186:1 obj 1\\
1.706171049152906: 151:1 168:1 191:1 obj 1\\
1.485545789769418: 154:1 212:2 253:1 obj 1\\
0.2840037953089898: 2:1 241:1 263:1 obj 1\\
0.810218781021964: 19:1 235:1 254:1 obj 1\\
0.4547097015632737: 29:1 228:1 251:1 obj 1\\
0.9367622789188587: 34:1 216:1 258:1 obj 1\\
0.8070890636680124: 35:1 227:1 245:1 obj 1\\
0.807945333228774: 35:1 232:1 240:1 obj 1\\
0.2583504302741532: 57:1 196:1 256:1 obj 1\\
1: 70:1 187:1 252:1 obj 1\\
0.82430223089676: 73:1 212:1 222:1 obj 1\\
0.2655692710669701: 79:1 162:1 269:1 obj 1\\
0.6876926111137913: 99:1 146:1 266:1 obj 1\\
0.7241723675070098: 101:1 151:1 260:1 obj 1\\
1: 103:1 190:1 214:1 obj 1\\
0.3153216257819341: 105:1 186:1 218:1 obj 1\\
1.10917837219937: 111:1 172:1 225:1 obj 1\\
0.9796574803868647: 119:1 191:1 198:1 obj 1\\
2.035832011662709: 120:2 272:1 obj 1\\
2: 121:1 188:1 201:1 obj 1\\
0.8114768002216853: 122:1 152:1 238:1 obj 1\\
1.094890609489018: 124:2 264:1 obj 1\\
0.5765490620524422: 125:1 171:1 213:1 obj 1\\
0.3894089828719713: 162:2 244:1 263:1 obj 1\\
0.6839719364401984: 197:3 238:1 obj 1\\
0.2636549351231645: 210:1 213:1 221:1 248:1 260:1 obj 1\\
2: 4:1 235:1 268:1 obj 1\\
0.2612865031277365: 16:1 219:1 273:1 obj 1\\
1.825959639757347: 26:1 224:1 258:1 obj 1\\
0.7498964880011314: 27:1 208:1 275:1 obj 1\\
0.1379243953116278: 35:1 211:1 263:1 obj 1\\
0.5741987188978914: 55:1 226:2 obj 1\\
0.1530981241048843: 64:1 213:1 231:1 obj 1\\
1.610591017128029: 70:1 193:1 244:1 obj 1\\
0.3795476412025407: 70:1 221:1 267:1 273:1 obj 1\\
0.7759606213528114: 72:1 207:1 229:1 obj 1\\
1.73443072893303: 79:1 174:1 256:1 obj 1\\
1.660457445910538: 91:1 201:1 216:1 obj 1\\
1: 99:1 161:1 249:1 obj 1\\
1.204410158666729: 99:1 175:1 234:1 obj 1\\
0.6306432515638682: 101:1 202:1 206:1 obj 1\\
0.4910449014061451: 103:1 150:1 259:1 obj 1\\
0.7953938104355949: 117:1 154:1 239:1 obj 1\\
0.4876267696131305: 119:1 163:1 227:1 obj 1\\
0.9162674358673819: 132:2 247:1 obj 1\\
0.7363450648768355: 151:1 152:1 210:1 obj 1\\
0.4234509379475578: 153:1 171:1 185:1 obj 1\\
0.3894089828719713: 154:1 193:1 241:2 obj 1\\
1: 15:1 226:1 266:1 obj 1\\
0.1929109363319876: 28:1 235:1 245:1 obj 1\\
0.0372471244805479: 39:1 227:1 241:1 obj 1\\
1.537043380161442: 57:1 198:1 254:1 obj 1\\
0.2046061895644051: 57:1 212:1 239:1 obj 1\\
2: 66:1 219:1 223:1 obj 1\\
0.8748770067016283: 66:1 256:3 obj 1\\
0.04569335333213975: 70:1 175:1 263:1 obj 1\\
0.3114559091573381: 75:1 168:1 267:1 obj 1\\
0.4245420264120341: 86:1 154:1 271:1 obj 1\\
0.2612865031277365: 90:1 169:1 251:1 obj 1\\
0.7387134968722635: 90:1 190:1 228:1 obj 1\\
0.7955898413332712: 91:1 200:1 217:1 obj 1\\
1.566773176323061: 94:1 166:1 249:1 obj 1\\
0.4332268236769394: 94:1 231:2 275:1 obj 1\\
0.3591658556697228: 99:1 140:1 273:1 obj 1\\
0.3726262170914387: 101:1 197:1 211:1 obj 1\\
0.3151971593498101: 103:1 201:1 205:1 obj 1\\
1: 110:1 162:1 238:1 obj 1\\
1: 125:1 181:1 252:1 276:1 obj 1\\
0.05454869830087347: 13:1 227:1 267:1 obj 1\\
0.1251229932983717: 66:1 194:1 249:1 obj 1\\
0.04163429896732471: 73:1 192:1 242:1 obj 1\\
0.09489060948901801: 92:1 186:1 231:1 obj 1\\
0.1387360748671582: 121:1 162:1 226:1 obj 1\\
0.1674651282652362: 132:1 172:1 205:1 obj 1\\
0.009102526676232348: 168:2 173:1 obj 1\\



